<number of tasks>
29

<cycle time>
33

<task times>
1 7
2 19
3 15
4 5
5 12
6 10
7 8
8 16
9 2
10 6
11 21
12 10
13 9
14 4
15 14
16 7
17 14
18 17
19 10
20 16
21 1
22 9
23 25
24 14
25 14
26 2
27 10
28 7
29 20

<precedence relations>
1,3
1,25
2,6
2,26
3,4
4,5
5,8
5,13
6,8
7,9
7,12
7,25
8,11
8,16
9,10
10,14
10,15
11,17
12,15
13,17
14,16
15,19
16,18
17,20
18,22
19,21
20,23
21,22
22,23
23,24
23,28
24,29
25,29
26,27
27,29
28,29

<setup times forward>
1,2:2
1,6:1
1,14:1
1,15:1
1,19:1
1,21:1
1,25:2
2,1:2
2,3:2
2,4:2
2,5:2
2,6:1
2,7:2
2,9:2
2,10:2
2,12:2
2,13:1
2,14:3
2,15:1
2,19:1
2,21:3
2,26:2
3,2:2
3,6:1
3,14:1
3,15:1
3,19:1
3,21:1
3,25:2
4,2:2
4,6:1
4,14:1
4,15:1
4,19:1
4,21:1
4,25:2
5,2:2
5,6:1
5,8:1
5,13:1
5,14:1
5,15:1
5,19:1
5,21:1
5,25:2
6,1:1
6,3:1
6,4:1
6,5:1
6,7:1
6,9:1
6,10:1
6,12:1
6,14:2
6,21:2
6,25:1
6,26:1
6,27:1
7,2:2
7,6:1
7,8:1
7,11:1
7,13:1
7,20:1
7,25:2
8,7:1
8,9:1
8,10:1
8,11:2
8,12:1
8,14:2
8,16:2
8,21:2
8,25:1
8,26:1
8,27:1
9,2:2
9,6:1
9,8:1
9,11:1
9,13:1
9,20:1
9,25:2
10,2:2
10,6:1
10,8:1
10,11:1
10,13:1
10,14:1
10,15:1
10,20:1
10,25:2
11,7:1
11,9:1
11,10:1
11,12:1
11,13:2
11,15:2
11,17:1
11,18:1
11,19:2
11,25:3
11,26:1
11,27:1
12,2:2
12,6:1
12,8:1
12,11:1
12,13:1
12,14:1
12,15:1
12,16:1
12,20:1
12,25:2
13,2:1
13,7:1
13,9:1
13,10:1
13,11:2
13,12:1
13,14:2
13,16:2
13,17:1
13,18:1
13,21:2
13,22:2
13,25:1
13,26:1
13,27:1
14,1:1
14,2:3
14,3:1
14,4:1
14,5:1
14,6:2
14,8:2
14,12:1
14,13:2
14,15:2
14,17:1
14,19:2
14,25:3
14,26:1
14,27:1
15,1:1
15,2:1
15,3:1
15,4:1
15,5:1
15,11:2
15,14:2
15,16:2
15,17:1
15,18:1
15,20:2
15,25:1
15,26:1
15,27:1
16,12:1
16,13:2
16,15:2
16,17:1
16,18:1
16,19:2
16,25:3
16,26:1
16,27:1
17,14:1
17,15:1
17,16:1
17,19:1
17,20:1
17,21:1
17,22:1
17,25:2
18,11:1
18,13:1
18,15:1
18,19:1
18,20:1
18,21:1
18,22:1
18,25:2
19,1:1
19,2:1
19,3:1
19,4:1
19,5:1
19,11:2
19,14:2
19,16:2
19,17:1
19,18:1
19,20:2
19,21:2
19,25:1
19,26:1
19,27:1
20,7:1
20,9:1
20,10:1
20,12:1
20,15:2
20,18:1
20,19:2
20,23:3
20,25:3
20,26:1
20,27:1
21,1:1
21,2:3
21,3:1
21,4:1
21,5:1
21,6:2
21,8:2
21,13:2
21,17:1
21,18:1
21,25:3
21,26:1
21,27:1
22,13:2
22,17:1
22,23:3
22,25:3
22,26:1
22,27:1
23,24:2
23,26:2
23,27:2
23,28:4
24,25:2
24,28:2
24,29:2
25,3:2
25,4:2
25,5:2
25,6:1
25,8:1
25,9:2
25,10:2
25,11:3
25,12:2
25,13:1
25,14:3
25,15:1
25,16:3
25,17:2
25,18:2
25,19:1
25,20:3
25,21:3
25,22:3
25,24:2
25,26:2
25,27:2
25,28:4
25,29:4
26,6:1
26,8:1
26,11:1
26,13:1
26,14:1
26,15:1
26,16:1
26,19:1
26,20:1
26,21:1
26,22:1
26,23:2
26,25:2
26,28:2
27,6:1
27,8:1
27,11:1
27,13:1
27,14:1
27,15:1
27,16:1
27,19:1
27,20:1
27,21:1
27,22:1
27,23:2
27,25:2
27,28:2
27,29:2
28,24:2
28,25:4
28,26:2
28,27:2

<setup times backward>
1,14:1
1,21:1
2,1:2
2,3:2
2,4:2
2,5:2
2,7:2
2,9:2
2,10:2
2,12:2
2,13:1
2,14:3
2,15:1
2,19:1
2,21:3
3,14:1
3,21:1
4,14:1
4,21:1
5,14:1
5,21:1
6,1:1
6,3:1
6,4:1
6,5:1
6,7:1
6,9:1
6,10:1
6,12:1
6,14:2
6,21:2
6,26:1
6,27:1
7,11:1
7,20:1
8,1:1
8,3:1
8,4:1
8,5:1
8,7:1
8,9:1
8,10:1
8,12:1
8,14:2
8,21:2
8,26:1
8,27:1
9,11:1
9,20:1
10,11:1
10,20:1
12,11:1
12,14:1
12,16:1
12,20:1
13,1:1
13,3:1
13,4:1
13,5:1
13,7:1
13,9:1
13,10:1
13,11:2
13,12:1
13,14:2
13,16:2
13,18:1
13,21:2
13,22:2
13,26:1
13,27:1
15,1:1
15,3:1
15,4:1
15,5:1
15,7:1
15,9:1
15,10:1
15,11:2
15,12:1
15,14:2
15,16:2
15,17:1
15,18:1
15,20:2
15,26:1
15,27:1
17,11:1
17,14:1
17,16:1
17,21:1
17,22:1
18,11:1
18,14:1
18,16:1
18,20:1
18,21:1
19,1:1
19,3:1
19,4:1
19,5:1
19,7:1
19,9:1
19,10:1
19,11:2
19,12:1
19,14:2
19,16:2
19,17:1
19,18:1
19,20:2
19,26:1
19,27:1
23,1:2
23,3:2
23,4:2
23,5:2
23,6:1
23,7:2
23,8:1
23,9:2
23,10:2
23,11:3
23,12:2
23,13:1
23,14:3
23,15:1
23,16:3
23,17:2
23,18:2
23,19:1
23,20:3
23,21:3
23,22:3
23,26:2
23,27:2
24,11:1
24,14:1
24,16:1
24,20:1
24,21:1
24,22:1
24,28:2
25,1:2
25,3:2
25,4:2
25,5:2
25,6:1
25,7:2
25,8:1
25,9:2
25,10:2
25,11:3
25,12:2
25,13:1
25,14:3
25,15:1
25,16:3
25,17:2
25,18:2
25,19:1
25,20:3
25,21:3
25,22:3
25,24:2
25,26:2
25,27:2
25,28:4
26,11:1
26,14:1
26,16:1
26,20:1
26,21:1
26,22:1
26,28:2
27,11:1
27,14:1
27,16:1
27,20:1
27,21:1
27,22:1
27,28:2

<end>

<optimal SALBP-1 value>
11


<rand seed>
467321153

<Lower Bounds>
Lm1=10
Lms1=10
Lm2=5
Lm3=7
Lm4=11
Best=11

<Optimal Stations (Iterations: 10)>
12
